90 362564
12 83 80 79 63 67 41 16 65 56 35 49 39 88 68 76 55 22 26 30 52 33 69 27 44 8 82 37 15 84 5 43 75 48 50 20 58 38 45 7 9 53 2 34 60 74 73 36 70 89 32 24 19 23 42 25 47 13 1 66 71 59 21 6 4 11 18 28 31 54 29 61 87 57 77 90 62 10 78 3 14 64 51 85 72 81 46 86 40 17 
